4 2 100 1 2
0 1000
 1 35.00 35.00 0.00 0.00 0.00 0 0 0 1000
 2 41.00 49.00 10.00 10.00 18.00 1 1 1 451 974
 3 35.00 17.00 10.00 7.00 10.00 1 1 1 18 534
 4 55.00 45.00 10.00 13.00 13.00 1 1 1 378 733
 5 55.00 20.00 10.00 19.00 18.00 1 1 1 477 965
 6 15.00 30.00 10.00 26.00 2.00 1 1 1 20 610
 7 25.00 30.00 10.00 3.00 5.00 1 1 1 245 684
 8 20.00 50.00 10.00 5.00 10.00 1 1 1 172 569
 9 10.00 43.00 10.00 9.00 36.00 1 1 1 245 640
 10 55.00 60.00 10.00 16.00 20.00 1 1 1 231 666
 11 30.00 60.00 10.00 16.00 21.00 1 1 1 430 779
 12 20.00 65.00 10.00 12.00 26.00 1 1 1 33 511
 13 50.00 35.00 10.00 19.00 3.00 1 1 1 50 523
 14 30.00 25.00 10.00 23.00 18.00 1 1 1 462 978
 15 15.00 10.00 10.00 20.00 17.00 1 1 1 32 694
 16 30.00 5.00 10.00 8.00 5.00 1 1 1 30 519
 17 10.00 20.00 10.00 19.00 9.00 1 1 1 102 543
 18 5.00 30.00 10.00 2.00 15.00 1 1 1 444 959
 19 20.00 40.00 10.00 12.00 9.00 1 1 1 229 582
 20 15.00 60.00 10.00 17.00 20.00 1 1 1 95 552
 21 45.00 65.00 10.00 9.00 36.00 1 1 1 418 829
 22 45.00 20.00 10.00 11.00 5.00 1 1 1 36 509
 23 45.00 10.00 10.00 18.00 6.00 1 1 1 246 657
 24 55.00 5.00 10.00 29.00 9.00 1 1 1 36 514
 25 65.00 35.00 10.00 3.00 6.00 1 1 1 435 960
 26 65.00 20.00 10.00 6.00 19.00 1 1 1 438 956
 27 45.00 30.00 10.00 17.00 6.00 1 1 1 428 827
 28 35.00 40.00 10.00 16.00 9.00 1 1 1 5 548
 29 41.00 37.00 10.00 16.00 19.00 1 1 1 6 526
 30 64.00 42.00 10.00 9.00 17.00 1 1 1 29 513
 31 40.00 60.00 10.00 21.00 18.00 1 1 1 91 522
 32 31.00 52.00 10.00 27.00 16.00 1 1 1 17 501
 33 35.00 69.00 10.00 23.00 26.00 1 1 1 482 955
 34 53.00 52.00 10.00 11.00 14.00 1 1 1 24 575
 35 65.00 55.00 10.00 14.00 20.00 1 1 1 367 776
 36 63.00 65.00 10.00 8.00 11.00 1 1 1 453 948
 37 2.00 60.00 10.00 5.00 11.00 1 1 1 41 615
 38 20.00 20.00 10.00 8.00 35.00 1 1 1 443 856
 39 5.00 5.00 10.00 16.00 14.00 1 1 1 130 577
 40 60.00 12.00 10.00 31.00 27.00 1 1 1 33 655
 41 40.00 25.00 10.00 9.00 8.00 1 1 1 201 596
 42 42.00 7.00 10.00 5.00 12.00 1 1 1 219 688
 43 24.00 12.00 10.00 5.00 11.00 1 1 1 25 560
 44 23.00 3.00 10.00 7.00 9.00 1 1 1 458 867
 45 11.00 14.00 10.00 18.00 12.00 1 1 1 59 514
 46 6.00 38.00 10.00 16.00 41.00 1 1 1 29 589
 47 2.00 48.00 10.00 1.00 9.00 1 1 1 338 805
 48 8.00 56.00 10.00 27.00 25.00 1 1 1 34 602
 49 13.00 52.00 10.00 36.00 16.00 1 1 1 454 962
 50 6.00 68.00 10.00 30.00 9.00 1 1 1 362 679
 51 47.00 47.00 10.00 13.00 1.00 1 1 1 379 810
 52 49.00 58.00 10.00 10.00 7.00 1 1 1 176 625
 53 27.00 43.00 10.00 9.00 15.00 1 1 1 11 502
 54 37.00 31.00 10.00 14.00 22.00 1 1 1 256 647
 55 57.00 29.00 10.00 18.00 13.00 1 1 1 475 900
 56 63.00 23.00 10.00 2.00 3.00 1 1 1 441 918
 57 53.00 12.00 10.00 6.00 8.00 1 1 1 412 865
 58 32.00 12.00 10.00 7.00 9.00 1 1 1 246 705
 59 36.00 26.00 10.00 18.00 23.00 1 1 1 479 980
 60 21.00 24.00 10.00 28.00 16.00 1 1 1 17 681
 61 17.00 34.00 10.00 3.00 19.00 1 1 1 449 971
 62 12.00 24.00 10.00 13.00 10.00 1 1 1 126 541
 63 24.00 58.00 10.00 19.00 16.00 1 1 1 25 544
 64 27.00 69.00 10.00 10.00 13.00 1 1 1 34 588
 65 15.00 77.00 10.00 9.00 13.00 1 1 1 46 524
 66 62.00 77.00 10.00 20.00 7.00 1 1 1 49 568
 67 49.00 73.00 10.00 25.00 27.00 1 1 1 421 864
 68 67.00 5.00 10.00 25.00 25.00 1 1 1 120 575
 69 56.00 39.00 10.00 36.00 23.00 1 1 1 459 930
 70 37.00 47.00 10.00 6.00 16.00 1 1 1 12 513
 71 37.00 56.00 10.00 5.00 31.00 1 1 1 368 968
 72 57.00 68.00 10.00 15.00 29.00 1 1 1 98 537
 73 47.00 16.00 10.00 25.00 28.00 1 1 1 22 617
 74 44.00 17.00 10.00 9.00 14.00 1 1 1 143 564
 75 46.00 13.00 10.00 8.00 8.00 1 1 1 482 965
 76 49.00 11.00 10.00 18.00 6.00 1 1 1 62 519
 77 49.00 42.00 10.00 13.00 30.00 1 1 1 129 534
 78 53.00 43.00 10.00 14.00 1.00 1 1 1 460 970
 79 61.00 52.00 10.00 3.00 3.00 1 1 1 207 676
 80 57.00 48.00 10.00 23.00 12.00 1 1 1 230 623
 81 56.00 37.00 10.00 6.00 18.00 1 1 1 470 968
 82 55.00 54.00 10.00 26.00 3.00 1 1 1 268 599
 83 15.00 47.00 10.00 16.00 27.00 1 1 1 23 515
 84 14.00 37.00 10.00 11.00 23.00 1 1 1 21 568
 85 11.00 31.00 10.00 7.00 16.00 1 1 1 278 669
 86 16.00 22.00 10.00 41.00 5.00 1 1 1 213 624
 87 4.00 18.00 10.00 35.00 2.00 1 1 1 230 623
 88 28.00 18.00 10.00 26.00 25.00 1 1 1 287 580
 89 26.00 52.00 10.00 9.00 9.00 1 1 1 104 563
 90 26.00 35.00 10.00 15.00 11.00 1 1 1 409 981
 91 31.00 67.00 10.00 3.00 7.00 1 1 1 225 654
 92 15.00 19.00 10.00 1.00 5.00 1 1 1 469 964
 93 22.00 22.00 10.00 2.00 10.00 1 1 1 18 585
 94 18.00 24.00 10.00 22.00 3.00 1 1 1 414 969
 95 26.00 27.00 10.00 27.00 16.00 1 1 1 283 656
 96 25.00 24.00 10.00 20.00 7.00 1 1 1 14 533
 97 22.00 27.00 10.00 11.00 17.00 1 1 1 445 852
 98 25.00 21.00 10.00 12.00 19.00 1 1 1 462 823
 99 19.00 21.00 10.00 10.00 2.00 1 1 1 21 506
 100 20.00 26.00 10.00 9.00 26.00 1 1 1 164 601
 101 18.00 18.00 10.00 17.00 8.00 1 1 1 391 965
